11
1 0 20
2 0 4
3 0 17
3 2 5
4 0 20
4 1 8
5 0 6
5 1 24
5 2 15
5 3 7
6 2 3
6 4 6
7 2 18
7 5 22
8 0 14
8 1 3
8 2 6
8 3 24
8 4 13
8 6 16
9 1 17
9 2 15
9 5 10
9 7 13
10 0 18
10 1 9
10 2 14
10 4 9
10 7 17
